seed= 2052018 ;
N= 10 ;
M= 2 ;
F= 2 ;
K= 3 ;
T= 90 ;

p=[ 20 20 20 20 20 16 16 16 16 16 ];
r=[ 6 4 25 13 2 8 21 8 29 22 ];
d=[ 26 9 2 41 3 16 37 29 34 39 ];
s=[ 1 1 1 1 1 1 1 1 1 1 ];
w=[ 3 5 3 3 3 2 1 1 3 5 ];
f=[ 1 1 1 1 1 2 2 2 2 2 ];

e1=[ 10 10 10 10 10 10 10 10 10 10 10 10 10 10 10 10 10 10 10 10 10 10 10 10 10 10 10 10 10 10 10 10 10 10 10 10 10 10 10 10 10 10 10 10 10 8 8 8 8 8 8 8 8 8 8 8 8 8 8 8 8 8 8 8 8 8 8 8 8 8 8 8 8 8 8 8 8 8 8 8 8 8 8 8 8 8 8 8 8 8 ];
e2=[ 10 10 10 10 10 10 10 10 10 10 10 10 10 10 10 10 10 10 10 10 10 10 10 10 10 10 10 10 10 10 9 9 9 9 9 9 9 9 9 9 9 9 9 9 9 8 8 8 8 8 8 8 8 8 8 8 8 8 8 8 8 8 8 8 8 8 8 8 8 8 8 8 8 8 8 9 9 9 9 9 9 9 9 9 9 9 9 9 9 9 ];